solution status: time limit reached
objective value:                     24.0000017382113
shell_j_$_104__0                                    1 	(obj:0)
shell_j_thing.thing.chamber[0].thingy.r1c__0                    1 	(obj:0)
shell_j_$_122__0                                    1 	(obj:0)
shell_j_$_102__0                                    1 	(obj:0)
shell_i_$_120__0                                    1 	(obj:0)
shell_j_$_120__0                                    1 	(obj:0)
shell_i_$_108__0                                    1 	(obj:0)
shell_j_$_108__0                                    1 	(obj:0)
shell_j_$_137__0                                    1 	(obj:0)
shell_j_$_96__0                                     1 	(obj:0)
shell_j_thing.thing.chamber[2].thingy.v4__0                    1 	(obj:0)
shell_j_$_25__0                                     1 	(obj:0)
shell_i_$_86__0                                     1 	(obj:0)
shell_j_$_86__0                                     1 	(obj:0)
shell_j_$_5__0                                      1 	(obj:0)
shell_j_$_9__0                                      1 	(obj:0)
shell_j_$_18__0                                     1 	(obj:0)
shell_j_$_16__0                                     1 	(obj:0)
shell_j_$_24__0                                     1 	(obj:0)
shell_i_$_7__0                                      1 	(obj:0)
shell_j_$_7__0                                      1 	(obj:0)
shell_j_$_19__0                                     1 	(obj:0)
shell_j_$_8__0                                      1 	(obj:0)
shell_j_$_2__0                                      1 	(obj:0)
shell_j_$_29                                        1 	(obj:0)
shell_i_$_28                                        1 	(obj:0)
shell_j_$_23__0                                     1 	(obj:0)
shell_j_$_105__0                                    1 	(obj:0)
shell_j_$_148__0                                    1 	(obj:0)
shell_j_$_11__0                                     1 	(obj:0)
shell_j_$_21__0                                     1 	(obj:0)
shell_j_$_143__0                                    1 	(obj:0)
shell_j_$_125__0                                    1 	(obj:0)
shell_j_$_88__0                                     1 	(obj:0)
shell_i_$_15__0                                     1 	(obj:0)
shell_j_$_98__0                                     1 	(obj:0)
shell_j_$_84__0                                     1 	(obj:0)
shell_j_$_123__0                                    1 	(obj:0)
shell_j_$_27__0                                     1 	(obj:0)
shell_j_$_3__0                                      1 	(obj:0)
shell_j_$_134__0                                    1 	(obj:0)
shell_j_$_93__0                                     1 	(obj:0)
shell_j_$_115__0                                    1 	(obj:0)
shell_i_$_147__0                                    1 	(obj:0)
shell_j_$_147__0                                    1 	(obj:0)
shell_j_$_6__0                                      1 	(obj:0)
shell_j_$_12__0                                     1 	(obj:0)
shell_j_$_17__0                                     1 	(obj:0)
shell_j_$_4__0                                      1 	(obj:0)
shell_j_$_26__0                                     1 	(obj:0)
shell_j_$_100__0                                    1 	(obj:0)
shell_j_$_132__0                                    1 	(obj:0)
shell_j_$_13__0                                     1 	(obj:0)
shell_i_$_14__0                                     1 	(obj:0)
shell_j_$_14__0                                     1 	(obj:0)
shell_j_$_20__0                                     1 	(obj:0)
shell_j_$_22__0                                     1 	(obj:0)
shell_j_thing.thing.chamber[1].thingy.r1c__0                    1 	(obj:0)
shell_i_$_101__0                                    1 	(obj:0)
shell_j_$_101__0                                    1 	(obj:0)
shell_j_$_10__0                                     1 	(obj:0)
shell_j_thing.thing.chamber[1].thingy.r2c__0                    1 	(obj:0)
shell_j_thing.thing.chamber[1].thingy.r4c__0                    1 	(obj:0)
$_23__0_z                                          17 	(obj:0)
$_102__0_z                                         13 	(obj:0)
$_25__0_x                                           2 	(obj:0)
$_105__0_x                           1.00000000084641 	(obj:0)
$_105__0_y                                          2 	(obj:0)
$_105__0_z                                         25 	(obj:0)
$_25__0_y                                          -2 	(obj:0)
$_25__0_z                                          15 	(obj:0)
$_148__0_x                                          2 	(obj:0)
$_148__0_y                                         -2 	(obj:0)
$_148__0_z                                         25 	(obj:0)
thing.thing.chamber[0].thingy.r1c__0_y                    2 	(obj:0)
thing.thing.chamber[0].thingy.r1c__0_z                   22 	(obj:0)
$_11__0_x                            1.99999994231378 	(obj:0)
$_11__0_y                                           2 	(obj:0)
$_11__0_z                                          10 	(obj:0)
$_86__0_x                                          -2 	(obj:0)
$_86__0_y                                           2 	(obj:0)
$_21__0_x                           0.999999877479001 	(obj:0)
$_21__0_y                                           2 	(obj:0)
$_21__0_z                            15.0000001081909 	(obj:0)
$_86__0_z                                          25 	(obj:0)
$_120__0_x                                          2 	(obj:0)
$_143__0_x                                         -1 	(obj:0)
$_143__0_y                                          2 	(obj:0)
$_143__0_z                                         18 	(obj:0)
$_120__0_y                                          2 	(obj:0)
$_5__0_x                                            2 	(obj:0)
$_125__0_y                                          2 	(obj:0)
$_125__0_z                                         22 	(obj:0)
$_5__0_y                                            2 	(obj:0)
$_5__0_z                                           14 	(obj:0)
$_88__0_x                        -7.04285676611752e-08 	(obj:0)
$_88__0_y                                           2 	(obj:0)
$_88__0_z                                          14 	(obj:0)
$_120__0_z                                         13 	(obj:0)
$_104__0_z                                         22 	(obj:0)
$_15__0_x                                           2 	(obj:0)
$_15__0_y                           0.999999930041525 	(obj:0)
$_15__0_z                                          18 	(obj:0)
$_9__0_x                                            2 	(obj:0)
$_9__0_y                                            2 	(obj:0)
$_98__0_x                           -1.99999998816305 	(obj:0)
$_98__0_y                                           2 	(obj:0)
$_98__0_z                                          16 	(obj:0)
$_9__0_z                                           12 	(obj:0)
$_104__0_x                                         -2 	(obj:0)
$_84__0_x                                          -2 	(obj:0)
$_84__0_y                                           2 	(obj:0)
$_84__0_z                            13.0000000442701 	(obj:0)
$_108__0_x                                          2 	(obj:0)
$_18__0_x                                          -2 	(obj:0)
$_123__0_x                          -1.00000005153747 	(obj:0)
$_123__0_y                                          2 	(obj:0)
$_123__0_z                                         11 	(obj:0)
$_18__0_y                                           2 	(obj:0)
$_18__0_z                                          19 	(obj:0)
$_27__0_x                                          -1 	(obj:0)
$_27__0_y                                           2 	(obj:0)
$_27__0_z                                          20 	(obj:0)
$_108__0_y                                          2 	(obj:0)
$_108__0_z                                         17 	(obj:0)
$_3__0_x                                            1 	(obj:0)
$_3__0_y                                            2 	(obj:0)
$_3__0_z                                           18 	(obj:0)
$_16__0_x                                          -1 	(obj:0)
$_16__0_y                            2.00000000010788 	(obj:0)
$_134__0_y                           2.00000000365855 	(obj:0)
$_134__0_z                           17.0000000079728 	(obj:0)
$_16__0_z                                          19 	(obj:0)
$_122__0_x                          0.999999976760929 	(obj:0)
$_93__0_x                           -1.00000008975774 	(obj:0)
$_93__0_y                                           2 	(obj:0)
$_93__0_z                                          14 	(obj:0)
$_122__0_y                                          2 	(obj:0)
$_24__0_x                        -4.23793442983701e-08 	(obj:0)
$_115__0_x                                          2 	(obj:0)
$_115__0_y                           2.00000000107648 	(obj:0)
$_115__0_z                                         22 	(obj:0)
$_24__0_y                                           2 	(obj:0)
$_24__0_z                                          15 	(obj:0)
$_147__0_x                           2.00000000017076 	(obj:0)
$_147__0_y                                         -2 	(obj:0)
$_147__0_z                           18.0000001121054 	(obj:0)
$_137__0_x                       -4.25682401788991e-08 	(obj:0)
$_137__0_y                                          2 	(obj:0)
$_6__0_x                            0.999999996217853 	(obj:0)
$_6__0_y                                            2 	(obj:0)
$_6__0_z                                           17 	(obj:0)
$_7__0_x                                            2 	(obj:0)
$_7__0_y                                            2 	(obj:0)
$_12__0_x                          -0.999999984915312 	(obj:0)
$_12__0_y                                           2 	(obj:0)
$_12__0_z                                          16 	(obj:0)
$_7__0_z                                           25 	(obj:0)
$_137__0_z                                         21 	(obj:0)
$_17__0_y                                           2 	(obj:0)
$_17__0_z                            16.0000000147359 	(obj:0)
$_122__0_z                                         21 	(obj:0)
$_19__0_x                                           2 	(obj:0)
$_4__0_x                                           -2 	(obj:0)
$_4__0_y                                            2 	(obj:0)
$_4__0_z                                           20 	(obj:0)
$_19__0_y                                           2 	(obj:0)
$_19__0_z                            20.0000000033786 	(obj:0)
$_26__0_x                           0.999999863890889 	(obj:0)
$_26__0_y                                           2 	(obj:0)
$_26__0_z                            18.9999998973157 	(obj:0)
$_104__0_y                                          2 	(obj:0)
$_96__0_x                                           2 	(obj:0)
$_100__0_x                                         -1 	(obj:0)
$_100__0_y                                          2 	(obj:0)
$_100__0_z                           12.0000000636988 	(obj:0)
$_8__0_y                                            2 	(obj:0)
$_132__0_x                                         -2 	(obj:0)
$_132__0_y                                          2 	(obj:0)
$_132__0_z                                17.99999982 	(obj:0)
$_8__0_z                                           25 	(obj:0)
$_96__0_y                                           2 	(obj:0)
$_13__0_x                                           2 	(obj:0)
$_13__0_y                                           2 	(obj:0)
$_13__0_z                                          15 	(obj:0)
$_96__0_z                            8.99999997985719 	(obj:0)
$_2__0_x                            0.999999999234108 	(obj:0)
$_14__0_x                                           2 	(obj:0)
$_14__0_y                                           2 	(obj:0)
$_14__0_z                                          19 	(obj:0)
$_2__0_y                                            2 	(obj:0)
$_2__0_z                                           16 	(obj:0)
$_20__0_x                                           1 	(obj:0)
$_20__0_y                                           2 	(obj:0)
$_20__0_z                            19.9999998922733 	(obj:0)
thing.thing.chamber[0].thingy.r1c__0_x                   -1 	(obj:0)
$_102__0_x                                          1 	(obj:0)
$_22__0_x                                           2 	(obj:0)
$_22__0_y                                           2 	(obj:0)
$_22__0_z                            21.0000000037442 	(obj:0)
$_29_x                                              2 	(obj:0)
$_29_y                                              2 	(obj:0)
thing.thing.chamber[1].thingy.r1c__0_y                    2 	(obj:0)
thing.thing.chamber[1].thingy.r1c__0_z                   18 	(obj:0)
$_29_z                                             18 	(obj:0)
thing.thing.chamber[2].thingy.v4__0_x                   -1 	(obj:0)
$_101__0_x                                          2 	(obj:0)
$_101__0_y                                          2 	(obj:0)
$_101__0_z                                         16 	(obj:0)
thing.thing.chamber[2].thingy.v4__0_y                    2 	(obj:0)
$_28_x                                              2 	(obj:0)
$_10__0_x                                           1 	(obj:0)
$_10__0_y                                           2 	(obj:0)
$_10__0_z                                          14 	(obj:0)
$_28_y                              0.999999931437908 	(obj:0)
$_28_z                                             20 	(obj:0)
thing.thing.chamber[1].thingy.r2c__0_x                    1 	(obj:0)
thing.thing.chamber[1].thingy.r2c__0_y                    2 	(obj:0)
thing.thing.chamber[1].thingy.r2c__0_z                   11 	(obj:0)
thing.thing.chamber[2].thingy.v4__0_z                   17 	(obj:0)
$_102__0_y                                          2 	(obj:0)
thing.thing.chamber[1].thingy.r4c__0_y                    2 	(obj:0)
thing.thing.chamber[1].thingy.r4c__0_z     12.9999999752926 	(obj:0)
$_23__0_x                                           2 	(obj:0)
$_23__0_y                                          -2 	(obj:0)
x287                             1.93291684464963e-08 	(obj:1)
x299                                 1.00000006189741 	(obj:1)
x304                             6.02623606031118e-08 	(obj:1)
x309                                                4 	(obj:1)
x324                             4.86043622270168e-08 	(obj:1)
x338                                 1.00000004904093 	(obj:1)
x345                                 1.00000009869335 	(obj:1)
x350                             4.82343510269217e-08 	(obj:1)
x356                             8.93126314784217e-08 	(obj:1)
x359                             1.48469611155774e-07 	(obj:1)
x362                                 2.00000004402514 	(obj:1)
x368                                 2.00000009923562 	(obj:1)
x372                                  1.0000000999391 	(obj:1)
x373                                 2.00000004401934 	(obj:1)
x379                             3.15475891880242e-08 	(obj:1)
x380                             8.39569143573271e-08 	(obj:1)
x390                             4.68500461324347e-08 	(obj:1)
x391                              4.4841910045529e-08 	(obj:1)
x392                                  2.0000001090869 	(obj:1)
x396                             4.81225391740874e-08 	(obj:1)
x398                             4.85729958522821e-08 	(obj:1)
x399                                 2.00000004402514 	(obj:1)
x400                             2.50388787626658e-08 	(obj:1)
x401                             5.05843509468153e-08 	(obj:1)
x404                                 1.00000000424448 	(obj:1)
x413                                 1.00000015543828 	(obj:1)
x418                              2.8550583571154e-08 	(obj:1)
x421                             1.93291684464965e-08 	(obj:1)
x424                                 3.00000004011001 	(obj:1)
x433                                 1.00000004684817 	(obj:1)
